p cnf 76 254
-4 -2 0
-4 -3 0
2 3 4 0
-5 -1 0
-5 -4 0
1 4 5 0
6 2 -7 0
-6 -2 -7 0
6 -2 7 0
-6 2 7 0
8 5 0
8 -7 0
-5 7 -8 0
10 -8 0
10 -9 0
8 9 -10 0
-1 -10 -11 0
1 10 -11 0
-1 10 11 0
1 -10 11 0
13 2 0
13 1 0
-2 -1 -13 0
-14 -12 0
-14 13 0
12 -13 14 0
-15 -11 0
-15 -14 0
11 14 15 0
2 -16 -17 0
-2 16 -17 0
2 16 17 0
-2 -16 17 0
-18 -9 0
-18 17 0
9 -17 18 0
-19 15 0
-19 18 0
-15 -18 19 0
4 -2 -20 0
-4 2 -20 0
4 2 20 0
-4 -2 20 0
22 4 0
22 -21 0
-4 21 -22 0
-20 -22 -23 0
20 22 -23 0
-20 22 23 0
20 -22 23 0
-19 -23 -24 0
19 23 -24 0
-19 23 24 0
19 -23 24 0
26 -25 0
26 1 0
25 -1 -26 0
13 -3 -27 0
-13 3 -27 0
13 3 27 0
-13 -3 27 0
28 -3 0
28 6 0
3 -6 -28 0
28 -29 -30 0
-28 29 -30 0
28 29 30 0
-28 -29 30 0
-31 -5 0
-31 30 0
5 -30 31 0
32 25 0
32 -31 0
-25 31 -32 0
8 -32 -33 0
-8 32 -33 0
8 32 33 0
-8 -32 33 0
27 33 -34 0
-27 -33 -34 0
27 -33 34 0
-27 33 34 0
35 26 0
35 -34 0
-26 34 -35 0
-7 -3 -36 0
7 3 -36 0
-7 3 36 0
7 -3 36 0
-37 35 0
-37 36 0
-35 -36 37 0
-38 28 0
-38 32 0
-28 -32 38 0
-39 -30 0
-39 38 0
30 -38 39 0
41 -40 0
41 9 0
40 -9 -41 0
-41 -10 -42 0
41 10 -42 0
-41 10 42 0
41 -10 42 0
-39 42 -43 0
39 -42 -43 0
-39 -42 43 0
39 42 43 0
-12 -5 -45 0
12 5 -45 0
-12 5 45 0
12 -5 45 0
46 44 0
46 -45 0
-44 45 -46 0
43 46 -47 0
-43 -46 -47 0
43 -46 47 0
-43 46 47 0
48 -6 0
48 -16 0
6 16 -48 0
-49 22 0
-49 -20 0
-22 20 49 0
50 12 0
50 12 0
-12 -50 0
-51 -32 0
-51 50 0
32 -50 51 0
31 25 -52 0
-31 -25 -52 0
31 -25 52 0
-31 25 52 0
-53 -10 0
-53 -52 0
10 52 53 0
54 51 0
54 -53 0
-51 53 -54 0
54 32 -55 0
-54 -32 -55 0
54 -32 55 0
-54 32 55 0
-56 -49 0
-56 -55 0
49 55 56 0
-48 -56 -57 0
48 56 -57 0
-48 56 57 0
48 -56 57 0
58 47 0
58 57 0
-47 -57 -58 0
-59 -37 0
-59 58 0
37 -58 59 0
13 5 -60 0
-13 -5 -60 0
13 -5 60 0
-13 5 60 0
61 -13 0
61 31 0
13 -31 -61 0
62 60 0
62 61 0
-60 -61 -62 0
-59 62 -63 0
59 -62 -63 0
-59 -62 63 0
59 62 63 0
-64 -29 0
-64 -16 0
29 16 64 0
64 65 0
-64 65 0
25 -41 -66 0
-25 41 -66 0
25 41 66 0
-25 -41 66 0
-17 -66 -67 0
17 66 -67 0
-17 66 67 0
17 -66 67 0
65 -67 -68 0
-65 67 -68 0
65 67 68 0
-65 -67 68 0
63 68 -69 0
-63 -68 -69 0
63 -68 69 0
-63 68 69 0
70 24 0
70 -69 0
-24 69 -70 0
-71 17 -72 0
71 -17 -72 0
-71 -17 72 0
71 17 72 0
72 6 -73 0
-72 -6 -73 0
72 -6 73 0
-72 6 73 0
-75 -73 0
-75 -74 0
73 74 75 0
76 -70 0
76 -75 0
70 75 -76 0
10 -39 0
21 -56 3 0
45 53 -69 -41 0
-7 -76 -32 39 0
22 13 27 75 0
-10 -34 69 0
11 61 -30 0
55 -15 26 -33 -39 0
-16 66 0
-2 4 0
-74 -19 35 -21 -28 -12 0
6 69 70 0
-72 29 -16 -65 -60 0
-59 -45 31 0
-50 -18 -32 23 57 -58 0
-56 75 39 0
-9 70 0
20 -45 65 0
-47 29 0
47 18 48 -16 0
-20 -53 34 -24 -35 -75 0
14 75 -51 -18 -71 0
1 27 48 68 0
43 -16 -5 -24 -27 0
16 -12 75 0
-66 39 67 -64 62 0
-9 -1 12 0
-55 -33 36 0
10 -69 0
63 -57 -24 0
34 13 0
57 -34 63 18 0
20 -56 0
71 57 28 0
10 20 -56 67 0
40 38 -31 -26 64 0
65 6 28 0
15 -69 -43 0
48 -31 0
-34 8 16 48 -68 -13 0
35 -6 75 0
29 36 2 8 35 -65 0
76 0
